# Initialization

molecule        H2O h2o.txt
atom_style      template H2O
boundary        p p p
dimension       3
newton          on
units           real
fix             1 all property/atom q

# Atom definition

lattice         bcc 4.0
region          box block 0.0 50.0 0.0 50.0 0.0 50.0 side in units box
create_box      2 box bond/types 1 angle/types 1 extra/bond/per/atom 2 extra/angle/per/atom 1

#create_atoms    0 random 2000 5678 NULL mol H2O 89098 units box
create_atoms    0 box mol H2O 89098 units box
mass            1 15.9994
mass            2 1.008

#write_data      data.genbox

#read_data       data.minimize

# Force fields

pair_style      lj/cut/coul/long 9.0
pair_coeff      1 1 0.1553 3.166 # O-O,from lammps doc
pair_coeff      2 2 0.0 0.0 # H-H
pair_coeff      1 2 0.0 0.0 # O-H
kspace_style    pppm 1.0e-4

bond_style      harmonic
bond_coeff      1 450.0 1.0
angle_style     harmonic
angle_coeff     1 100.0 109.47

min_style       sd
minimize        1.0e-6 1.0e-6 10000 10000

#write_data      data.minimize

# Settings

neighbor        2.0 bin
run_style       verlet
timestep        1.0
velocity        all create 300.0 1993 dist gaussian

fix             5 all shake 0.0001 20 1000 b 1 a 1
fix             6 all npt temp 298.0 298.0 100.0 iso 0.987 0.987 1000.0

# Output

thermo          100

dump            myDump all atom 100 dump.atom
dump            myxyz all xyz 100 dump.xyz

# Actions

run             1000000
